%
% Generated Sudoku 25x25
% Density approximation: 0.50
%
x = array2d(1..n, 1..n, [
   7,   _,   _,  20,  21,   _,   _,  11,  18,   _,  13,   2,   4,   _,   _,  23,  24,   _,   _,   _,   _,   _,   _,  14,   _,
  25,  17,   _,  18,   _,   2,   _,  13,  10,   _,   _,  11,   1,   _,   _,  15,   7,   _,   6,  21,   _,   4,   _,   _,   9,
   _,   _,  22,   _,  13,  16,   _,   6,  25,  15,   _,   _,   _,  23,   _,   _,   _,   _,  19,  11,   _,  18,   _,   _,   _,
  12,   5,   6,   4,   _,   _,   _,  24,   _,  19,   7,  18,  10,   _,   9,  25,  22,   8,  14,  16,   _,   _,   _,  15,   _,
  19,   _,  11,   _,  10,  12,   9,  14,   7,  21,   _,  25,  15,   _,  16,   _,   _,   _,   4,   _,   2,  20,  22,   _,   _,
  11,   _,   _,  23,   5,  18,   2,  15,  21,   6,   _,  24,   _,   _,  19,   _,   _,   _,   1,  22,   _,  12,   _,   9,   _,
   3,   _,   _,   _,   4,   9,  22,   7,  13,   _,   _,   _,   _,  12,   _,  20,   _,  21,  11,   _,   _,   _,   _,   _,   5,
  22,   _,   _,   _,   _,   _,   _,  20,  17,   _,  11,  16,   _,   4,   _,  19,   _,   7,   _,   3,  10,   _,   1,   2,   8,
   1,   2,  12,  13,   _,   _,   _,   4,  16,   _,   9,   5,   _,   8,   _,  10,   _,   _,  18,  17,   _,   _,   7,   _,   _,
  16,   _,   _,   _,   _,   _,  10,  25,   _,   _,   1,   _,  20,   _,  17,   _,   _,   _,  23,   4,   _,  15,  19,  13,   _,
   _,   8,  25,   _,   _,  17,   _,   2,   _,   _,  10,   6,   _,   _,   _,   _,  11,  13,   5,   _,   _,   _,   4,   _,  21,
  10,   _,   _,   _,  17,   _,   _,   _,   _,  16,   _,   _,  18,   _,   _,   _,   _,   _,  20,   1,   _,   3,  13,   5,  14,
  21,   _,   _,   _,   _,  20,   _,   _,   _,   _,   2,   _,  16,  13,   _,   _,   _,   4,  17,   _,   _,  10,   _,  19,  23,
  23,  11,  13,   _,  22,   _,   _,  18,   _,  10,   _,   _,  17,  25,   1,   7,   _,   6,   _,  14,   9,   _,   _,   _,  20,
   _,   _,  14,   3,   _,   _,   _,  12,   6,   9,   5,  23,   _,   _,  20,   _,  16,   _,  10,  25,   _,  22,   2,   7,   _,
   _,   6,   2,   7,  11,   _,  20,   3,  15,  13,   _,   1,  23,  10,   5,   _,  19,   _,   _,   _,  21,   _,   8,  24,   _,
   8,   1,  19,   _,  14,  10,   _,   _,   _,   2,   _,   _,  11,   3,   _,   4,   5,  24,  21,   7,   _,  17,   _,  20,  13,
  17,  13,   9,  24,   _,   _,  21,   5,   _,  18,  16,  12,   7,  20,   8,   _,   _,   _,   _,   _,   _,   2,  25,   _,  19,
  15,   _,   _,  16,  25,   _,   _,  23,   _,   _,   _,  14,  22,  18,   2,  11,  20,  17,   _,   9,   7,   5,   _,   _,   _,
   _,   _,   _,   _,  18,   7,   _,   _,   _,  11,   _,   _,  13,  19,   4,   _,   _,  23,   3,   2,   _,   1,   _,   _,   6,
   _,  21,   _,  17,   _,   _,   _,   _,   _,   4,   _,   _,   _,  16,   _,   _,  13,   _,  12,   _,   _,   _,   9,  25,   _,
  13,  16,   _,   _,   _,   _,  17,   8,   _,   _,  23,   _,   _,   _,   _,   _,   _,   9,   2,  20,   4,   _,   _,   6,   _,
   2,   _,   4,  11,   _,   _,   _,  10,   5,  12,   _,   _,   _,  15,   3,   _,  21,  18,   _,   _,   _,  19,   _,   _,   _,
  14,  18,   1,   _,   3,  15,  11,   _,   _,   _,   4,  13,  24,   2,   6,   _,   _,  25,   _,  19,   _,  16,  12,   _,   _,
   6,   _,   _,  10,   _,   _,   _,  22,   _,   _,  20,   _,   _,   _,  12,   _,   4,  11,   _,   _,  15,   _,   3,   _,   2
]);

n = 25;
